5
4
20
1 1.3 1.55 1.75 2.1
35 12 41 32 32 23 15 6 20 47 24 13 24 42 15 21 31 39 31 38 40 7 21 9 11 33 7 11 37 47 11 38 22 17 41 8 28 14 26 47 23 28 28 34 46 45 16 28 17 29 7 8 10 24 14 26 28 37 8 11 19 25 25 44 16 35 27 16 35 22 24 19 32 27 6 48 34 46 16 18 